18
5 9
5 13
5 2
5 12
5 1
5 11
5 17
5 0
5 14
9 15
9 17
9 14
9 10
9 3
9 16
9 13
9 0
14 17
14 6
14 1
14 12
14 4
14 15
14 13
17 3
17 0
17 8
17 2
17 15
17 4
4 7
4 12
4 0
4 1
4 16
4 11
4 15
7 12
7 16
7 11
7 3
7 6
7 2
7 13
7 1
10 11
10 15
10 3
10 6
10 8
10 12
10 1
10 2
11 3
11 1
11 0
11 8
11 15
8 13
8 2
8 16
8 6
8 3
8 1
13 2
13 3
13 15
13 6
12 16
12 0
12 6
12 1
2 1
2 16
2 0
3 0
3 16
15 6
15 16
16 6
0 6
